NAME: random-77-2629
TYPE: TSP
COMMENT: size=77 seed=2629
DIMENSION: 156
EDGE_WEIGHT_TYPE: EUC_2D
NODE_COORD_SECTION
+0 603 406
-0 603 406
+1 170 63
-1 595 14
+2 672 282
-2 584 630
+3 420 188
-3 243 763
+4 375 601
-4 831 723
+5 828 466
-5 405 191
+6 312 762
-6 344 669
+7 93 294
-7 742 613
+8 265 715
-8 545 443
+9 830 485
-9 756 289
+10 340 487
-10 544 284
+11 401 28
-11 392 964
+12 774 444
-12 924 252
+13 957 642
-13 404 471
+14 483 11
-14 40 114
+15 572 992
-15 342 910
+16 158 731
-16 280 646
+17 735 986
-17 990 226
+18 399 83
-18 461 19
+19 596 387
-19 31 273
+20 463 263
-20 114 706
+21 739 870
-21 100 287
+22 10 50
-22 641 532
+23 111 975
-23 570 86
+24 663 809
-24 426 52
+25 565 403
-25 374 16
+26 785 388
-26 810 71
+27 891 46
-27 444 650
+28 279 448
-28 41 631
+29 578 298
-29 806 874
+30 907 866
-30 97 449
+31 165 570
-31 222 760
+32 449 500
-32 361 627
+33 13 131
-33 385 116
+34 644 459
-34 738 448
+35 613 82
-35 288 170
+36 969 32
-36 876 296
+37 401 26
-37 695 320
+38 598 976
-38 733 129
+39 330 376
-39 47 437
+40 170 230
-40 496 832
+41 824 736
-41 93 545
+42 184 420
-42 586 610
+43 753 580
-43 534 990
+44 695 326
-44 341 204
+45 219 210
-45 566 528
+46 52 610
-46 442 982
+47 788 19
-47 590 362
+48 349 132
-48 536 781
+49 271 958
-49 453 912
+50 759 193
-50 557 761
+51 929 915
-51 775 13
+52 464 777
-52 985 375
+53 993 144
-53 3 712
+54 297 654
-54 666 775
+55 852 112
-55 809 467
+56 318 736
-56 261 128
+57 696 706
-57 916 907
+58 916 781
-58 494 434
+59 801 151
-59 387 310
+60 621 263
-60 632 634
+61 607 26
-61 182 191
+62 542 59
-62 229 8
+63 881 49
-63 646 615
+64 969 316
-64 266 700
+65 190 309
-65 205 762
+66 165 482
-66 352 573
+67 762 571
-67 952 548
+68 272 595
-68 863 851
+69 418 996
-69 780 923
+70 581 385
-70 378 465
+71 289 364
-71 866 123
+72 502 816
-72 942 283
+73 578 435
-73 905 54
+74 545 342
-74 482 121
+75 327 483
-75 550 959
+76 844 192
-76 118 79
+77 231 566
-77 907 856
PRECEDENCE_SECTION
+0 -0
+1 -1
+2 -2
+3 -3
+4 -4
+5 -5
+6 -6
+7 -7
+8 -8
+9 -9
+10 -10
+11 -11
+12 -12
+13 -13
+14 -14
+15 -15
+16 -16
+17 -17
+18 -18
+19 -19
+20 -20
+21 -21
+22 -22
+23 -23
+24 -24
+25 -25
+26 -26
+27 -27
+28 -28
+29 -29
+30 -30
+31 -31
+32 -32
+33 -33
+34 -34
+35 -35
+36 -36
+37 -37
+38 -38
+39 -39
+40 -40
+41 -41
+42 -42
+43 -43
+44 -44
+45 -45
+46 -46
+47 -47
+48 -48
+49 -49
+50 -50
+51 -51
+52 -52
+53 -53
+54 -54
+55 -55
+56 -56
+57 -57
+58 -58
+59 -59
+60 -60
+61 -61
+62 -62
+63 -63
+64 -64
+65 -65
+66 -66
+67 -67
+68 -68
+69 -69
+70 -70
+71 -71
+72 -72
+73 -73
+74 -74
+75 -75
+76 -76
+77 -77
EOF
